0 2883
1 2826
2 2690
3 2634
4 2587
5 2515
6 2462
7 2358
8 2296
9 2296
10 2224
11 2167
12 2121
13 2121
14 2110
15 2110
16 2101
17 2101
18 2089
19 2079
20 2079
21 2069
22 2061
23 2051
24 2051
25 2036
26 2036
27 2018
28 2001
29 2001
30 2001
31 2001
32 1959
33 1959
34 1953
35 1953
36 1953
37 1953
38 1942
39 1942
40 1942
41 1916
42 1905
43 1905
44 1905
45 1878
46 1878
47 1878
48 1878
49 1875
50 1865
51 1865
52 1865
53 1865
54 1865
55 1865
56 1859
57 1859
58 1857
59 1857
60 1857
61 1857
62 1857
63 1843
64 1843
65 1843
66 1843
67 1843
68 1843
69 1843
70 1843
71 1843
72 1843
73 1843
74 1843
75 1843
76 1843
77 1843
78 1843
79 1829
80 1829
81 1829
82 1829
83 1829
84 1829
85 1829
86 1829
87 1823
88 1823
89 1823
90 1823
91 1823
92 1823
93 1817
94 1817
95 1817
96 1817
97 1817
98 1817
99 1817
100 1817
101 1817
102 1817
103 1817
104 1817
105 1817
106 1817
107 1817
108 1817
109 1817
110 1817
111 1817
112 1817
113 1817
114 1817
115 1814
116 1814
117 1814
118 1814
119 1809
120 1809
121 1809
122 1809
123 1800
124 1800
125 1800
126 1800
127 1800
128 1795
129 1795
130 1795
131 1795
132 1795
133 1795
134 1795
135 1795
136 1795
137 1795
138 1787
139 1787
140 1787
141 1787
142 1787
143 1787
144 1787
145 1787
146 1787
147 1787
148 1787
149 1787
150 1787
151 1787
152 1787
153 1787
154 1787
155 1769
156 1765
157 1765
158 1765
159 1765
160 1765
161 1765
162 1765
163 1757
164 1747
165 1747
166 1747
167 1747
168 1747
169 1747
170 1746
171 1745
172 1745
173 1745
174 1745
175 1741
176 1741
177 1741
178 1741
179 1739
180 1739
181 1739
182 1739
183 1738
184 1738
185 1738
186 1738
187 1738
188 1738
189 1738
190 1738
191 1738
192 1738
193 1738
194 1738
195 1738
196 1738
197 1738
198 1734
199 1734
200 1734
201 1734
202 1734
203 1734
204 1734
205 1734
206 1734
207 1734
208 1734
209 1734
210 1734
211 1734
212 1734
213 1734
214 1734
215 1734
216 1734
217 1734
218 1732
219 1732
220 1732
221 1732
222 1729
223 1729
224 1729
225 1729
226 1729
227 1729
228 1727
229 1727
230 1727
231 1727
232 1727
233 1716
234 1716
235 1697
236 1697
237 1697
238 1697
239 1697
240 1697
241 1697
242 1686
243 1686
244 1686
245 1686
246 1686
247 1686
248 1686
249 1686
250 1686
251 1686
252 1686
253 1686
254 1686
255 1686
256 1686
257 1681
258 1681
259 1681
260 1681
261 1681
262 1681
263 1681
264 1680
265 1680
266 1680
267 1680
268 1680
269 1680
270 1680
271 1680
272 1680
273 1680
274 1680
275 1680
276 1680
277 1680
278 1680
279 1680
280 1680
281 1680
282 1680
283 1680
284 1678
285 1678
286 1678
287 1678
288 1678
289 1678
290 1678
291 1678
292 1678
293 1678
294 1678
295 1678
296 1678
297 1678
298 1675
299 1675
300 1675
301 1675
302 1675
303 1675
304 1675
305 1675
306 1675
307 1675
308 1675
309 1675
310 1675
311 1675
312 1675
313 1675
314 1675
315 1675
316 1675
317 1675
318 1675
319 1675
320 1675
321 1675
322 1675
323 1675
324 1675
325 1675
326 1675
327 1675
328 1675
329 1675
330 1675
331 1675
332 1675
333 1675
334 1675
335 1675
336 1675
337 1675
338 1675
339 1675
340 1675
341 1675
342 1675
343 1675
344 1675
345 1675
346 1675
347 1675
348 1675
349 1675
350 1675
351 1675
352 1675
353 1675
354 1675
355 1675
356 1675
357 1675
358 1675
359 1675
360 1675
361 1675
362 1675
363 1675
364 1675
365 1675
366 1675
367 1675
368 1675
369 1675
370 1675
371 1675
372 1675
373 1675
374 1675
375 1675
376 1675
377 1675
378 1675
379 1675
380 1675
381 1675
382 1675
383 1675
384 1675
385 1675
386 1675
387 1675
388 1675
389 1675
390 1675
391 1675
392 1675
393 1675
394 1675
395 1675
396 1675
397 1675
398 1675
399 1675
400 1675
401 1675
402 1675
403 1675
404 1675
405 1675
406 1675
407 1675
408 1675
409 1675
410 1675
411 1675
412 1675
413 1675
414 1675
415 1675
416 1675
417 1675
418 1675
419 1675
420 1675
421 1675
422 1675
423 1675
424 1675
425 1675
426 1675
427 1675
428 1675
429 1675
430 1675
431 1675
432 1675
433 1675
434 1675
435 1675
436 1675
437 1675
438 1675
439 1675
440 1675
441 1675
442 1675
443 1675
444 1675
445 1675
446 1675
447 1675
448 1675
449 1675
450 1675
451 1675
452 1675
453 1675
454 1675
455 1675
456 1675
457 1675
458 1675
459 1675
460 1675
461 1675
462 1675
463 1675
464 1675
465 1675
466 1675
467 1675
468 1675
469 1675
470 1675
471 1675
472 1675
473 1675
474 1675
475 1675
476 1675
477 1675
478 1675
479 1675
480 1675
481 1675
482 1675
483 1675
484 1675
485 1675
486 1675
487 1675
488 1675
489 1675
490 1675
491 1675
492 1675
493 1675
494 1675
495 1675
496 1675
497 1675
498 1675
499 1675
500 1675
501 1675
502 1675
503 1675
504 1675
505 1675
506 1675
507 1675
508 1675
509 1675
510 1675
511 1675
512 1675
513 1675
514 1675
515 1675
516 1675
517 1675
518 1675
519 1675
520 1675
521 1675
522 1675
523 1675
524 1675
525 1675
526 1675
527 1675
528 1675
529 1675
530 1675
531 1675
532 1675
533 1675
534 1675
535 1675
536 1675
537 1675
538 1675
539 1675
540 1675
541 1675
542 1653
543 1653
544 1653
545 1653
546 1653
547 1653
548 1653
549 1653
550 1653
551 1653
552 1653
553 1653
554 1653
555 1653
556 1653
557 1653
558 1653
559 1653
560 1653
561 1653
562 1653
563 1653
564 1653
565 1653
566 1653
567 1653
568 1653
569 1653
570 1653
571 1653
572 1653
573 1653
574 1653
575 1653
576 1653
577 1653
578 1653
579 1653
580 1653
581 1653
582 1653
583 1653
584 1653
585 1653
586 1650
587 1650
588 1650
589 1650
590 1650
591 1650
592 1650
593 1650
594 1650
595 1650
596 1650
597 1650
598 1650
599 1650
600 1650
601 1650
602 1650
603 1650
604 1650
605 1650
606 1650
607 1650
608 1650
609 1650
610 1650
611 1650
612 1650
613 1650
614 1650
615 1650
616 1650
617 1650
618 1650
619 1650
620 1650
621 1650
622 1650
623 1650
624 1650
625 1650
626 1650
627 1650
628 1650
629 1650
630 1650
631 1650
632 1650
633 1650
634 1650
635 1650
636 1650
637 1650
638 1650
639 1650
640 1650
641 1650
642 1650
643 1650
644 1650
645 1650
646 1650
647 1650
648 1650
649 1650
650 1650
651 1650
652 1650
653 1650
654 1650
655 1650
656 1650
657 1650
658 1650
659 1650
660 1650
661 1650
662 1650
663 1650
664 1650
665 1650
666 1650
667 1650
668 1650
669 1650
670 1650
671 1650
672 1650
673 1650
674 1650
675 1650
676 1650
677 1650
678 1650
679 1650
680 1650
681 1650
682 1650
683 1650
684 1650
685 1650
686 1650
687 1650
688 1650
689 1650
690 1650
691 1650
692 1650
693 1650
694 1650
695 1650
696 1650
697 1650
698 1650
699 1650
700 1650
701 1650
702 1650
703 1650
704 1650
705 1650
706 1650
707 1650
708 1650
709 1650
710 1650
711 1650
712 1650
713 1650
714 1650
715 1650
716 1650
717 1650
718 1650
719 1650
720 1650
721 1650
722 1650
723 1650
724 1650
725 1650
726 1650
727 1650
728 1650
729 1650
730 1650
731 1650
732 1650
733 1650
734 1650
735 1650
736 1650
737 1650
738 1650
739 1650
740 1650
741 1650
742 1650
743 1650
744 1650
745 1650
746 1650
747 1650
748 1650
749 1650
750 1650
751 1650
752 1650
753 1650
754 1650
755 1650
756 1650
757 1650
758 1650
759 1650
760 1650
761 1650
762 1650
763 1650
764 1650
765 1650
766 1650
767 1650
768 1650
769 1650
770 1650
771 1650
772 1650
773 1650
774 1650
775 1650
776 1650
777 1650
778 1650
779 1650
780 1650
781 1650
782 1650
783 1650
784 1650
785 1650
786 1650
787 1650
788 1650
789 1650
790 1650
791 1650
792 1650
793 1650
794 1650
795 1650
796 1650
797 1650
798 1650
799 1650
800 1650
801 1650
802 1650
803 1650
804 1650
805 1650
806 1650
807 1650
808 1650
809 1650
810 1650
811 1650
812 1650
813 1650
814 1650
815 1650
816 1650
817 1650
818 1650
819 1650
820 1650
821 1650
822 1650
823 1650
824 1650
825 1650
826 1650
827 1650
828 1650
829 1650
830 1650
831 1650
832 1650
833 1650
834 1650
835 1650
836 1650
837 1650
838 1650
839 1650
840 1650
841 1650
842 1650
843 1650
844 1650
845 1650
846 1650
847 1650
848 1650
849 1650
850 1650
851 1650
852 1650
853 1650
854 1650
855 1650
856 1650
857 1650
858 1650
859 1650
860 1650
861 1650
862 1650
863 1650
864 1650
865 1650
866 1650
867 1650
868 1650
869 1650
870 1650
871 1650
872 1650
873 1650
874 1650
875 1650
876 1650
877 1650
878 1650
879 1650
880 1650
881 1650
882 1650
883 1650
884 1650
885 1650
886 1650
887 1650
888 1650
889 1650
890 1650
891 1650
892 1650
893 1650
894 1650
895 1650
896 1650
897 1650
898 1650
899 1650
900 1650
901 1650
902 1650
903 1650
904 1650
905 1650
906 1650
907 1650
908 1650
909 1650
910 1650
911 1650
912 1650
913 1650
914 1650
915 1650
916 1650
917 1650
918 1650
919 1650
920 1650
921 1650
922 1650
923 1650
924 1650
925 1650
926 1650
927 1650
928 1650
929 1650
930 1650
931 1650
932 1650
933 1650
934 1650
935 1650
936 1650
937 1650
938 1650
939 1650
940 1650
941 1650
942 1650
943 1650
944 1650
945 1650
946 1650
947 1650
948 1650
949 1650
950 1650
951 1650
952 1650
953 1650
954 1650
955 1650
956 1650
957 1650
958 1650
959 1650
960 1650
961 1650
962 1650
963 1650
964 1650
965 1650
966 1650
967 1650
968 1650
969 1650
970 1650
971 1650
972 1650
973 1650
974 1650
975 1650
976 1650
977 1650
978 1650
979 1650
980 1650
981 1650
982 1650
983 1650
984 1650
985 1650
986 1650
987 1650
988 1650
989 1650
990 1650
991 1650
992 1650
993 1650
994 1650
995 1650
996 1650
997 1650
998 1650
999 1650
Best: [[15,7,2,34,3,29,22,10],
       [5,11,23,24,13,12,31,16,33],
       [25,17,8,4,6,9,21],
       [19,18,35,32,20,27,14],
       [37,30,28,36,26]], fitness: 1650
